NAME : 10_3_3_3_(47).dat
COMMENT : Henke, Speranza, Wäscher, 2015
TYPE : MCVRP
DIMENSION : 11
EDGE_WEIGHT_TYPE : DISTANCE_MATRIX
CAPACITY : 1000
VEHICLES : 2
PRODUCT TYPES : 3
COMPARTMENTS : 3
NODE_COORD_SECTION
1 50 50
2 46 78.39
3 57.43 61.3
4 21.96 22.85
5 96.22 48.63
6 8.12 23.62
7 92.63 44.5
8 89.23 65.5
9 45.26 73.25
10 32.25 28.12
11 25.1 40.85
DEMAND_SECTION
1 0 0 0
2 28 75 15
3 102 61 32
4 40 54 12
5 32 67 60
6 108 68 20
7 74 33 35
8 119 17 42
9 100 19 12
10 38 17 50
11 75 17 6
DEPOT_SECTION
1
EOF